c .nnodes 80
c .nvars 95
c .nsuppvars 95
c .ids  0 1 2 3 4 5 6 7 8 9 10 11 12 13 14 15 16 17 18 19 20 21 22 23 24 25 26 27 28 29 30 31 32 33 34 35 36 37 38 39 40 41 42 43 44 45 46 47 48 49 50 51 52 53 54 55 56 57 58 59 60 61 62 63 64 65 66 67 68 69 70 71 72 73 74 75 76 77 78 79 80 81 82 83 84 85 86 87 88 89 90 91 92 93 94 
c .cnfids  281 282 283 218 284 285 286 279 280 287 288 289 290 291 292 293 294 295 296 219 220 297 298 299 300 301 302 303 304 305 306 307 221 222 308 309 310 223 224 225 226 227 228 229 230 231 232 233 234 235 236 237 238 239 240 241 242 243 244 245 246 247 248 249 250 251 252 253 254 255 256 257 258 259 260 261 262 263 264 265 266 267 268 269 270 271 272 273 274 275 276 216 217 277 278 
c .nroots 1
c .rootids 2
p cnf 311 892
3 4 6 -156 214 0
3 -4 -6 -156 214 0
-3 -214 0
-3 -4 6 0
-3 156 0
-3 4 -6 0
4 218 -5 0
4 -218 5 0
-4 -218 -5 0
-4 218 5 0
5 279 -280 0
5 -279 280 0
-5 -279 -280 0
-5 279 280 0
6 220 -66 0
6 -219 -220 66 0
6 219 -66 0
6 -7 66 0
-6 -219 -220 -66 0
-6 219 7 66 0
-6 220 7 66 0
7 219 -220 8 0
7 -219 220 8 0
-7 -8 0
-7 219 220 0
-7 -219 -220 0
8 221 9 0
8 222 9 0
-8 -9 0
-8 -221 -222 0
9 221 -222 10 0
9 -221 222 10 0
-9 -10 0
-9 221 222 0
-9 -221 -222 0
10 223 11 0
10 224 11 0
-10 -11 0
-10 -223 -224 0
11 223 -224 12 0
11 -223 224 12 0
-11 -12 0
-11 223 224 0
-11 -223 -224 0
12 225 13 0
12 226 13 0
-12 -13 0
-12 -225 -226 0
13 225 -226 14 0
13 -225 226 14 0
-13 -14 0
-13 225 226 0
-13 -225 -226 0
14 227 15 0
14 228 15 0
-14 -15 0
-14 -227 -228 0
15 227 -228 16 0
15 -227 228 16 0
-15 -16 0
-15 227 228 0
-15 -227 -228 0
16 229 17 0
16 230 17 0
-16 -17 0
-16 -229 -230 0
17 229 -230 18 0
17 -229 230 18 0
-17 -18 0
-17 229 230 0
-17 -229 -230 0
18 231 19 0
18 232 19 0
-18 -19 0
-18 -231 -232 0
19 231 -232 20 0
19 -231 232 20 0
-19 -20 0
-19 231 232 0
-19 -231 -232 0
20 233 21 0
20 234 21 0
-20 -21 0
-20 -233 -234 0
21 233 -234 22 0
21 -233 234 22 0
-21 -22 0
-21 233 234 0
-21 -233 -234 0
22 235 23 0
22 236 23 0
-22 -23 0
-22 -235 -236 0
23 235 -236 24 0
23 -235 236 24 0
-23 -24 0
-23 235 236 0
-23 -235 -236 0
24 237 25 0
24 238 25 0
-24 -25 0
-24 -237 -238 0
25 237 -238 26 0
25 -237 238 26 0
-25 -26 0
-25 237 238 0
-25 -237 -238 0
26 239 27 0
26 240 27 0
-26 -27 0
-26 -239 -240 0
27 239 -240 28 0
27 -239 240 28 0
-27 -28 0
-27 239 240 0
-27 -239 -240 0
28 241 29 0
28 242 29 0
-28 -29 0
-28 -241 -242 0
29 241 -242 30 0
29 -241 242 30 0
-29 -30 0
-29 241 242 0
-29 -241 -242 0
30 243 31 0
30 244 31 0
-30 -31 0
-30 -243 -244 0
31 243 -244 32 0
31 -243 244 32 0
-31 -32 0
-31 243 244 0
-31 -243 -244 0
32 245 33 0
32 246 33 0
-32 -33 0
-32 -245 -246 0
33 245 -246 34 0
33 -245 246 34 0
-33 -34 0
-33 245 246 0
-33 -245 -246 0
34 247 35 0
34 248 35 0
-34 -35 0
-34 -247 -248 0
35 247 -248 36 0
35 -247 248 36 0
-35 -36 0
-35 247 248 0
-35 -247 -248 0
36 249 37 0
36 250 37 0
-36 -37 0
-36 -249 -250 0
37 249 -250 38 0
37 -249 250 38 0
-37 -38 0
-37 249 250 0
-37 -249 -250 0
38 251 39 0
38 252 39 0
-38 -39 0
-38 -251 -252 0
39 251 -252 40 0
39 -251 252 40 0
-39 -40 0
-39 251 252 0
-39 -251 -252 0
40 253 41 0
40 254 41 0
-40 -41 0
-40 -253 -254 0
41 253 -254 42 0
41 -253 254 42 0
-41 -42 0
-41 253 254 0
-41 -253 -254 0
42 255 43 0
42 256 43 0
-42 -43 0
-42 -255 -256 0
43 255 -256 44 0
43 -255 256 44 0
-43 -44 0
-43 255 256 0
-43 -255 -256 0
44 257 45 0
44 258 45 0
-44 -45 0
-44 -257 -258 0
45 257 -258 46 0
45 -257 258 46 0
-45 -46 0
-45 257 258 0
-45 -257 -258 0
46 259 47 0
46 260 47 0
-46 -47 0
-46 -259 -260 0
47 259 -260 48 0
47 -259 260 48 0
-47 -48 0
-47 259 260 0
-47 -259 -260 0
48 261 49 0
48 262 49 0
-48 -49 0
-48 -261 -262 0
49 261 -262 50 0
49 -261 262 50 0
-49 -50 0
-49 261 262 0
-49 -261 -262 0
50 263 51 0
50 264 51 0
-50 -51 0
-50 -263 -264 0
51 263 -264 52 0
51 -263 264 52 0
-51 -52 0
-51 263 264 0
-51 -263 -264 0
52 265 53 0
52 266 53 0
-52 -53 0
-52 -265 -266 0
53 265 -266 54 0
53 -265 266 54 0
-53 -54 0
-53 265 266 0
-53 -265 -266 0
54 267 55 0
54 268 55 0
-54 -55 0
-54 -267 -268 0
55 267 -268 56 0
55 -267 268 56 0
-55 -56 0
-55 267 268 0
-55 -267 -268 0
56 269 57 0
56 270 57 0
-56 -57 0
-56 -269 -270 0
57 269 -270 58 0
57 -269 270 58 0
-57 -58 0
-57 269 270 0
-57 -269 -270 0
58 271 59 0
58 272 59 0
-58 -59 0
-58 -271 -272 0
59 271 -272 60 0
59 -271 272 60 0
-59 -60 0
-59 271 272 0
-59 -271 -272 0
60 273 61 0
60 274 61 0
-60 -61 0
-60 -273 -274 0
61 273 -274 62 0
61 -273 274 62 0
-61 -62 0
-61 273 274 0
-61 -273 -274 0
62 275 63 0
62 276 63 0
-62 -63 0
-62 -275 -276 0
63 275 -276 -64 0
63 -275 276 -64 0
-63 64 0
-63 275 276 0
-63 -275 -276 0
64 -277 -278 0
64 -278 -65 0
64 -277 -65 0
-64 277 65 0
-64 278 65 0
-64 277 278 0
65 -216 -217 0
-65 216 0
-65 217 0
66 -67 -154 0
-66 67 0
-66 154 0
67 -68 -152 0
-67 68 0
-67 152 0
68 -69 -150 0
-68 69 0
-68 150 0
69 -70 -148 0
-69 70 0
-69 148 0
70 -71 -146 0
-70 71 0
-70 146 0
71 -72 -144 0
-71 72 0
-71 144 0
72 -73 -142 0
-72 73 0
-72 142 0
73 -74 -140 0
-73 74 0
-73 140 0
74 -75 -138 0
-74 75 0
-74 138 0
75 -76 -136 0
-75 76 0
-75 136 0
76 -77 -134 0
-76 77 0
-76 134 0
77 -78 -132 0
-77 78 0
-77 132 0
78 -79 -130 0
-78 79 0
-78 130 0
79 -80 -128 0
-79 80 0
-79 128 0
80 -81 -126 0
-80 81 0
-80 126 0
81 -82 -124 0
-81 82 0
-81 124 0
82 -83 -122 0
-82 83 0
-82 122 0
83 -84 -120 0
-83 84 0
-83 120 0
84 -85 -118 0
-84 85 0
-84 118 0
85 -86 -116 0
-85 86 0
-85 116 0
86 -87 -114 0
-86 87 0
-86 114 0
87 -88 -112 0
-87 88 0
-87 112 0
88 -89 -110 0
-88 89 0
-88 110 0
89 -90 -108 0
-89 90 0
-89 108 0
90 -91 -106 0
-90 91 0
-90 106 0
91 -92 -104 0
-91 92 0
-91 104 0
92 -93 -102 0
-92 93 0
-92 102 0
93 -94 -100 0
-93 94 0
-93 100 0
94 -95 -97 0
-94 95 0
-94 97 0
95 96 -64 0
95 -96 64 0
-95 -96 -64 0
-95 96 64 0
96 275 -276 0
96 -275 276 0
-96 -275 -276 0
-96 275 276 0
97 217 -98 0
97 216 -98 0
-97 98 0
-97 -216 -217 0
98 -217 -99 0
98 -216 -99 0
-98 99 0
-98 216 217 0
99 277 -278 0
99 -277 278 0
-99 -277 -278 0
-99 277 278 0
100 -62 -101 0
100 62 101 0
-100 62 -101 0
-100 -62 101 0
101 273 -274 0
101 -273 274 0
-101 -273 -274 0
-101 273 274 0
102 -60 -103 0
102 60 103 0
-102 60 -103 0
-102 -60 103 0
103 271 -272 0
103 -271 272 0
-103 -271 -272 0
-103 271 272 0
104 -58 -105 0
104 58 105 0
-104 58 -105 0
-104 -58 105 0
105 269 -270 0
105 -269 270 0
-105 -269 -270 0
-105 269 270 0
106 -56 -107 0
106 56 107 0
-106 56 -107 0
-106 -56 107 0
107 267 -268 0
107 -267 268 0
-107 -267 -268 0
-107 267 268 0
108 -54 -109 0
108 54 109 0
-108 54 -109 0
-108 -54 109 0
109 265 -266 0
109 -265 266 0
-109 -265 -266 0
-109 265 266 0
110 -52 -111 0
110 52 111 0
-110 52 -111 0
-110 -52 111 0
111 263 -264 0
111 -263 264 0
-111 -263 -264 0
-111 263 264 0
112 -50 -113 0
112 50 113 0
-112 50 -113 0
-112 -50 113 0
113 261 -262 0
113 -261 262 0
-113 -261 -262 0
-113 261 262 0
114 -48 -115 0
114 48 115 0
-114 48 -115 0
-114 -48 115 0
115 259 -260 0
115 -259 260 0
-115 -259 -260 0
-115 259 260 0
116 -46 -117 0
116 46 117 0
-116 46 -117 0
-116 -46 117 0
117 257 -258 0
117 -257 258 0
-117 -257 -258 0
-117 257 258 0
118 -44 -119 0
118 44 119 0
-118 44 -119 0
-118 -44 119 0
119 255 -256 0
119 -255 256 0
-119 -255 -256 0
-119 255 256 0
120 -42 -121 0
120 42 121 0
-120 42 -121 0
-120 -42 121 0
121 253 -254 0
121 -253 254 0
-121 -253 -254 0
-121 253 254 0
122 -40 -123 0
122 40 123 0
-122 40 -123 0
-122 -40 123 0
123 251 -252 0
123 -251 252 0
-123 -251 -252 0
-123 251 252 0
124 -38 -125 0
124 38 125 0
-124 38 -125 0
-124 -38 125 0
125 249 -250 0
125 -249 250 0
-125 -249 -250 0
-125 249 250 0
126 -36 -127 0
126 36 127 0
-126 36 -127 0
-126 -36 127 0
127 247 -248 0
127 -247 248 0
-127 -247 -248 0
-127 247 248 0
128 -34 -129 0
128 34 129 0
-128 34 -129 0
-128 -34 129 0
129 245 -246 0
129 -245 246 0
-129 -245 -246 0
-129 245 246 0
130 -32 -131 0
130 32 131 0
-130 32 -131 0
-130 -32 131 0
131 243 -244 0
131 -243 244 0
-131 -243 -244 0
-131 243 244 0
132 -30 -133 0
132 30 133 0
-132 30 -133 0
-132 -30 133 0
133 241 -242 0
133 -241 242 0
-133 -241 -242 0
-133 241 242 0
134 -28 -135 0
134 28 135 0
-134 28 -135 0
-134 -28 135 0
135 239 -240 0
135 -239 240 0
-135 -239 -240 0
-135 239 240 0
136 -26 -137 0
136 26 137 0
-136 26 -137 0
-136 -26 137 0
137 237 -238 0
137 -237 238 0
-137 -237 -238 0
-137 237 238 0
138 -24 -139 0
138 24 139 0
-138 24 -139 0
-138 -24 139 0
139 235 -236 0
139 -235 236 0
-139 -235 -236 0
-139 235 236 0
140 -22 -141 0
140 22 141 0
-140 22 -141 0
-140 -22 141 0
141 233 -234 0
141 -233 234 0
-141 -233 -234 0
-141 233 234 0
142 -20 -143 0
142 20 143 0
-142 20 -143 0
-142 -20 143 0
143 231 -232 0
143 -231 232 0
-143 -231 -232 0
-143 231 232 0
144 -18 -145 0
144 18 145 0
-144 18 -145 0
-144 -18 145 0
145 229 -230 0
145 -229 230 0
-145 -229 -230 0
-145 229 230 0
146 -16 -147 0
146 16 147 0
-146 16 -147 0
-146 -16 147 0
147 227 -228 0
147 -227 228 0
-147 -227 -228 0
-147 227 228 0
148 -14 -149 0
148 14 149 0
-148 14 -149 0
-148 -14 149 0
149 225 -226 0
149 -225 226 0
-149 -225 -226 0
-149 225 226 0
150 -12 -151 0
150 12 151 0
-150 12 -151 0
-150 -12 151 0
151 223 -224 0
151 -223 224 0
-151 -223 -224 0
-151 223 224 0
152 -10 -153 0
152 10 153 0
-152 10 -153 0
-152 -10 153 0
153 221 -222 0
153 -221 222 0
-153 -221 -222 0
-153 221 222 0
154 -8 -155 0
154 8 155 0
-154 8 -155 0
-154 -8 155 0
155 219 -220 0
155 -219 220 0
-155 -219 -220 0
-155 219 220 0
156 283 157 159 -160 0
156 -283 157 -159 -160 0
-156 160 0
-156 283 -159 0
-156 -157 0
-156 -283 159 0
157 282 -158 0
157 -282 158 0
-157 -282 -158 0
-157 282 158 0
158 68 -152 0
158 -68 152 0
-158 -68 -152 0
-158 68 152 0
159 69 -150 0
159 -69 150 0
-159 -69 -150 0
-159 69 150 0
160 285 161 163 -164 0
160 -285 161 -163 -164 0
-160 164 0
-160 285 -163 0
-160 -161 0
-160 -285 163 0
161 284 -162 0
161 -284 162 0
-161 -284 -162 0
-161 284 162 0
162 70 -148 0
162 -70 148 0
-162 -70 -148 0
-162 70 148 0
163 71 -146 0
163 -71 146 0
-163 -71 -146 0
-163 71 146 0
164 286 165 166 -168 0
164 -286 -165 166 -168 0
-164 -166 0
-164 286 -165 0
-164 168 0
-164 -286 165 0
165 72 -144 0
165 -72 144 0
-165 -72 -144 0
-165 72 144 0
166 287 -167 0
166 -287 167 0
-166 -287 -167 0
-166 287 167 0
167 73 -142 0
167 -73 142 0
-167 -73 -142 0
-167 73 142 0
168 288 169 170 -172 0
168 -288 -169 170 -172 0
-168 -170 0
-168 288 -169 0
-168 172 0
-168 -288 169 0
169 74 -140 0
169 -74 140 0
-169 -74 -140 0
-169 74 140 0
170 289 -171 0
170 -289 171 0
-170 -289 -171 0
-170 289 171 0
171 75 -138 0
171 -75 138 0
-171 -75 -138 0
-171 75 138 0
172 290 173 174 -176 0
172 -290 -173 174 -176 0
-172 -174 0
-172 290 -173 0
-172 176 0
-172 -290 173 0
173 76 -136 0
173 -76 136 0
-173 -76 -136 0
-173 76 136 0
174 291 -175 0
174 -291 175 0
-174 -291 -175 0
-174 291 175 0
175 77 -134 0
175 -77 134 0
-175 -77 -134 0
-175 77 134 0
176 293 177 179 -180 0
176 -293 177 -179 -180 0
-176 180 0
-176 293 -179 0
-176 -177 0
-176 -293 179 0
177 292 -178 0
177 -292 178 0
-177 -292 -178 0
-177 292 178 0
178 78 -132 0
178 -78 132 0
-178 -78 -132 0
-178 78 132 0
179 79 -130 0
179 -79 130 0
-179 -79 -130 0
-179 79 130 0
180 294 181 182 -184 0
180 -294 -181 182 -184 0
-180 -182 0
-180 294 -181 0
-180 184 0
-180 -294 181 0
181 80 -128 0
181 -80 128 0
-181 -80 -128 0
-181 80 128 0
182 295 -183 0
182 -295 183 0
-182 -295 -183 0
-182 295 183 0
183 81 -126 0
183 -81 126 0
-183 -81 -126 0
-183 81 126 0
184 297 185 187 -188 0
184 -297 185 -187 -188 0
-184 188 0
-184 297 -187 0
-184 -185 0
-184 -297 187 0
185 296 -186 0
185 -296 186 0
-185 -296 -186 0
-185 296 186 0
186 82 -124 0
186 -82 124 0
-186 -82 -124 0
-186 82 124 0
187 83 -122 0
187 -83 122 0
-187 -83 -122 0
-187 83 122 0
188 299 189 191 -192 0
188 -299 189 -191 -192 0
-188 192 0
-188 299 -191 0
-188 -189 0
-188 -299 191 0
189 298 -190 0
189 -298 190 0
-189 -298 -190 0
-189 298 190 0
190 84 -120 0
190 -84 120 0
-190 -84 -120 0
-190 84 120 0
191 85 -118 0
191 -85 118 0
-191 -85 -118 0
-191 85 118 0
192 301 193 195 -196 0
192 -301 193 -195 -196 0
-192 196 0
-192 301 -195 0
-192 -193 0
-192 -301 195 0
193 300 -194 0
193 -300 194 0
-193 -300 -194 0
-193 300 194 0
194 86 -116 0
194 -86 116 0
-194 -86 -116 0
-194 86 116 0
195 87 -114 0
195 -87 114 0
-195 -87 -114 0
-195 87 114 0
196 302 197 198 -200 0
196 -302 -197 198 -200 0
-196 -198 0
-196 302 -197 0
-196 200 0
-196 -302 197 0
197 88 -112 0
197 -88 112 0
-197 -88 -112 0
-197 88 112 0
198 303 -199 0
198 -303 199 0
-198 -303 -199 0
-198 303 199 0
199 89 -110 0
199 -89 110 0
-199 -89 -110 0
-199 89 110 0
200 304 201 202 -204 0
200 -304 -201 202 -204 0
-200 -202 0
-200 304 -201 0
-200 204 0
-200 -304 201 0
201 90 -108 0
201 -90 108 0
-201 -90 -108 0
-201 90 108 0
202 305 -203 0
202 -305 203 0
-202 -305 -203 0
-202 305 203 0
203 91 -106 0
203 -91 106 0
-203 -91 -106 0
-203 91 106 0
204 306 205 206 -208 0
204 -306 -205 206 -208 0
-204 -206 0
-204 306 -205 0
-204 208 0
-204 -306 205 0
205 92 -104 0
205 -92 104 0
-205 -92 -104 0
-205 92 104 0
206 307 -207 0
206 -307 207 0
-206 -307 -207 0
-206 307 207 0
207 93 -102 0
207 -93 102 0
-207 -93 -102 0
-207 93 102 0
208 -308 -209 -210 0
208 308 209 -210 0
-208 210 0
-208 -308 209 0
-208 308 -209 0
209 94 -100 0
209 -94 100 0
-209 -94 -100 0
-209 94 100 0
210 -309 310 211 -213 0
210 -309 -310 -211 -213 0
210 309 310 211 213 0
210 309 -310 -211 213 0
-210 309 -213 0
-210 -309 213 0
-210 -310 211 0
-210 310 -211 0
211 -212 -99 0
211 212 99 0
-211 212 -99 0
-211 -212 99 0
212 216 217 0
-212 -216 0
-212 -217 0
213 95 -97 0
213 -95 97 0
-213 -95 -97 0
-213 95 97 0
214 281 -215 0
214 -281 215 0
-214 -281 -215 0
-214 281 215 0
215 67 -154 0
215 -67 154 0
-215 -67 -154 0
-215 67 154 0
311 0
2 -3 0
-2 3 0
2 0

